0 2976
2 2971
3 2926
15 2905
26 2894
46 2884
47 2856
60 2813
63 2811
112 2792
113 2787
121 2774
125 2755
146 2752
1072 2750
1081 2744
1082 2741
1107 2740
3145 2735
83104 2732
83206 2731
87056 2729
233698 2725
234038 2724
